Version identifier: 22.1.0.0 | 2022-03-09 | 1a383f8ce
CPXPARAM_Read_DataCheck                          1
CPXPARAM_Threads                                 1
CPXPARAM_TimeLimit                               3600
Tried aggregator 2 times.
MIP Presolve eliminated 716 rows and 322 columns.
MIP Presolve modified 4361 coefficients.
Aggregator did 142 substitutions.
Reduced MIP has 1338 rows, 286 columns, and 7888 nonzeros.
Reduced MIP has 231 binaries, 0 generals, 0 SOSs, and 0 indicators.
Presolve time = 0.01 sec. (12.30 ticks)
Probing time = 0.00 sec. (2.83 ticks)
Tried aggregator 1 time.
Detecting symmetries...
Reduced MIP has 1338 rows, 286 columns, and 7888 nonzeros.
Reduced MIP has 231 binaries, 0 generals, 0 SOSs, and 0 indicators.
Presolve time = 0.01 sec. (3.86 ticks)
Probing time = 0.00 sec. (3.43 ticks)
Clique table members: 2028.
MIP emphasis: balance optimality and feasibility.
MIP search method: dynamic search.
Parallel mode: none, using 1 thread.
Root relaxation solution time = 0.00 sec. (3.37 ticks)

        Nodes                                         Cuts/
   Node  Left     Objective  IInf  Best Integer    Best Bound    ItCnt     Gap

      0     0       14.6200    36                     14.6200       67         
      0     0       14.6200    18                    Cuts: 13       93         
      0     0       14.6200    29                   Cuts: 153      161         
      0     0       14.6200    14                     Cuts: 8      195         
      0     0       14.6200    20                    Cuts: 85      238         
Detecting symmetries...
      0     2       14.6200     9                     14.6200      238         
Elapsed time = 0.25 sec. (292.04 ticks, tree = 0.01 MB, solutions = 0)
*    40+   18                           15.3700       14.6200             4.88%
    178    80       14.6240    20       15.3700       14.6200     4893    4.88%
*   230+   36                           14.6300       14.6200             0.07%
    275    17       14.6200    16       14.6300       14.6200     9597    0.07%

GUB cover cuts applied:  16
Clique cuts applied:  7
Cover cuts applied:  26
Implied bound cuts applied:  25
Mixed integer rounding cuts applied:  10
Zero-half cuts applied:  4

Root node processing (before b&c):
  Real time             =    0.25 sec. (292.06 ticks)
Sequential b&c:
  Real time             =    0.37 sec. (552.74 ticks)
                          ------------
Total (root+branch&cut) =    0.63 sec. (844.79 ticks)
